unsat
(define-fun move ((currPoint Int) (o0 Int) (o1 Int)) Int (let ((_let_1 (get-x currPoint))) (ite (= _let_1 8) 2 (ite (<= _let_1 0) (ite (= (get-y currPoint) 2) 2 1) 1))))
775.23user 0.13system 12:55.39elapsed 99%CPU (0avgtext+0avgdata 243456maxresident)k
0inputs+8outputs (0major+57052minor)pagefaults 0swaps
